1630490400
1630513800
1630576800
1630600200
1630922400
1630945800
1631001600
1631032200
1631095200
1631118600
1631181600
1631205000
1631268000
1631291400
1631527200
1631550600
1631613600
1631637000
1631700000
1631723400
1631786400
1631809800
1631872800
1631896200
1632132000
1632155400
1632218400
1632241800
1632304800
1632328200
1632391200
1632414600
1632477600
1632501000
1632726000
1632761100
1632981600
1633020300
1632898800
1632933900
1632823200
1632846600
